30	100	100	100
39	100	100
29	100	100
27	100	100
4	100	100
6	100	100
8	100	100
36	100	100
35	100	100
24	100	100
15	100	100
31	100	100
5	100	100
1	100	100
32	100	100
44	100	100
42	100	100
47	100	100
23	100	100
1	100	100
12	100	100
36	100	100
46	100	100
23	100	100
19	100	100
40	100	100
22	100	100
15	100	100
45	100	100
30	100	100
30	100	100
